230317
230317
228575
228575
228575
221192
221192
221192
221192
221192
220033
220033
219515
219515
216542
216542
214230
213245
213230
213230
213230
212443
211010
211010
211010
210290
210290
209727
209727
206934
206096
202441
202441
201366
201366
201366
201366
200557
199756
199523
199065
199065
199065
198681
197798
196203
196203
196203
196203
195813
192973
192973
192973
192973
192973
192973
191578
191578
191578
189633
189633
189633
189633
189633
189633
189633
189076
189076
189076
188889
187429
187429
187429
186579
186579
186070
185215
185215
185215
185215
182923
182923
182626
182071
182071
181644
181644
181644
181644
179384
179384
179384
179384
179384
177975
177975
177975
177975
176352
176352
